InboundTrucks  = 50;
OutboundTrucks = 50;
InboundDoors   = 15;
OutboundDoors  = 15;
ReleaseTime    = [17,72,108,102,97,8,32,15,63,97,57,60,83,48,100,26,12,62,3,114,106,49,55,77,97,98,0,89,57,34,92,102,29,75,120,13,115,40,3,2,3,83,69,1,120,112,48,87,27,54];
UnloadTime     = [8,13,17,20,35,24,14,5,32,35,28,34,5,26,31,27,9,24,13,31,9,17,15,6,28,11,30,7,32,14,5,21,6,30,28,14,8,34,22,15,15,27,6,32,29,16,8,12,13,30];
LoadTime       = [6,20,20,10,14,17,14,23,13,9,13,6,9,19,6,6,8,16,13,16,24,12,8,18,15,16,12,8,25,22,7,16,14,24,17,16,11,14,17,7,12,18,13,15,24,18,22,12,17,13];
TransferTime   = [| 3,0,0,6,0,0,1,0,0,6,0,0,3,0,0,4,7,0,2,0,0,3,0,9,6,0,0,5,0,0,6,0,0,0,0,7,4,0,0,6,0,0,0,0,0,0,0,0,1,0 | 0,5,0,0,1,0,0,4,0,5,0,0,0,0,0,0,1,5,0,0,0,0,4,0,0,0,11,0,5,0,0,3,12,0,0,0,0,2,6,0,3,0,0,1,0,0,1,0,0,5 | 0,0,1,0,0,0,0,0,3,0,0,0,10,0,2,0,0,4,0,5,3,5,0,0,0,5,2,8,11,0,0,8,0,0,10,3,12,0,4,0,0,2,0,0,0,7,0,1,0,0 | 3,0,0,0,0,6,6,0,0,6,0,10,3,0,0,3,0,0,1,0,0,0,4,0,0,0,0,6,0,0,0,0,0,0,0,0,0,0,0,5,0,0,0,0,0,4,0,0,3,0 | 0,6,0,0,1,0,0,0,0,0,0,0,0,0,0,7,0,0,10,0,0,0,0,10,0,2,0,0,1,0,0,0,0,0,6,0,6,0,0,0,0,0,0,0,0,0,0,0,0,0 | 0,0,4,0,8,1,0,12,5,0,0,2,0,0,1,0,0,0,0,0,2,0,0,0,0,0,2,0,10,4,7,0,2,4,0,2,12,0,5,0,0,1,0,0,1,0,0,2,0,0 | 0,0,0,1,0,0,0,0,0,6,0,0,4,0,0,4,7,0,0,0,0,1,0,0,5,0,0,1,0,0,3,0,11,0,0,0,3,0,0,0,0,0,6,0,0,1,0,0,6,0 | 0,0,0,0,0,0,0,0,0,0,1,0,0,0,0,0,6,0,0,6,0,0,0,0,0,5,0,0,3,0,0,1,0,0,0,0,0,6,0,0,2,4,0,3,0,10,0,11,6,6 | 0,0,0,0,0,4,0,0,0,0,0,0,5,0,4,11,0,6,0,0,5,0,0,6,6,0,5,0,0,2,0,0,1,8,0,4,0,0,6,0,0,6,0,0,0,0,0,2,0,5 | 0,0,0,1,0,11,3,0,0,5,0,11,3,0,0,1,0,0,0,0,0,3,0,0,6,12,0,5,0,0,0,10,0,3,0,0,2,0,0,5,0,11,4,0,0,4,0,0,0,0 | 5,0,6,0,3,0,0,0,0,0,1,0,9,4,0,0,3,0,0,0,0,0,0,0,0,0,0,0,6,7,4,2,0,10,4,0,0,1,0,0,0,0,0,3,0,6,0,0,0,3 | 0,6,2,0,0,2,0,0,3,0,4,0,0,0,4,0,0,5,0,0,4,0,0,5,0,0,6,0,0,3,0,0,0,9,0,1,0,0,3,0,0,0,0,0,4,0,0,5,0,0 | 2,0,0,2,0,0,4,0,0,2,8,11,1,0,0,3,0,0,0,0,0,6,0,0,2,0,0,6,0,0,6,10,0,0,0,0,0,0,0,3,0,0,0,0,0,4,0,0,0,0 | 0,3,0,12,3,0,7,6,0,0,0,0,0,0,0,0,2,10,0,4,0,0,0,0,4,1,0,0,6,0,0,2,0,0,1,0,0,0,0,0,0,0,0,6,0,0,0,0,0,3 | 0,7,3,0,0,0,0,0,0,0,0,6,0,0,5,0,0,5,0,0,0,0,0,4,0,0,4,0,0,0,0,0,0,0,0,1,0,0,4,7,0,0,0,0,0,0,10,0,7,6 | 3,9,0,4,0,0,1,0,0,5,0,0,3,0,0,0,0,0,3,0,0,4,0,0,5,0,0,6,0,0,0,0,0,1,0,0,1,0,0,4,0,0,5,0,0,1,0,8,3,0 | 0,0,0,0,3,0,5,0,0,0,1,0,0,0,0,0,1,0,0,5,0,0,0,0,0,6,0,0,1,0,0,1,0,0,3,0,0,6,0,10,0,0,9,3,0,4,0,0,0,5 | 0,0,1,0,0,1,0,0,2,0,0,4,0,0,5,0,0,1,0,0,5,0,0,3,0,0,3,11,0,6,0,0,6,0,0,5,0,0,0,0,4,2,0,5,5,0,0,0,12,0 | 2,0,0,0,0,0,0,0,0,6,8,0,6,0,0,5,10,0,3,0,0,3,0,0,0,0,0,6,0,0,0,0,0,2,0,0,0,0,0,5,0,0,0,0,0,5,0,0,5,0 | 0,4,0,8,4,0,0,0,0,0,4,0,0,5,0,0,5,9,0,3,0,0,0,0,0,5,0,11,2,10,0,6,0,0,0,0,0,5,0,0,1,0,11,3,0,0,2,12,0,3 | 0,12,6,0,10,0,4,0,6,0,0,0,0,0,5,0,0,0,0,0,4,11,0,5,0,0,0,0,0,2,5,0,6,0,0,5,0,0,3,0,0,0,0,0,6,0,0,1,0,8 | 1,0,0,4,0,0,4,0,0,3,0,0,1,0,0,5,7,0,0,0,0,1,0,0,0,0,0,0,0,0,3,0,0,1,0,0,4,0,0,1,0,0,3,0,0,4,0,0,0,9 | 0,1,0,0,0,0,0,1,0,0,5,0,0,6,0,0,6,10,9,4,0,0,0,0,0,6,0,0,0,0,0,6,0,0,4,0,4,0,10,0,0,0,0,0,5,0,1,0,0,1 | 11,0,5,0,0,6,0,0,4,0,0,0,0,7,1,0,0,4,0,0,5,12,0,5,0,7,6,0,0,6,0,0,2,0,0,3,0,0,0,0,0,0,0,0,6,0,0,4,7,11 | 1,0,7,2,0,10,5,0,0,1,0,0,6,0,0,1,0,0,2,0,0,0,0,0,5,0,5,3,0,0,0,4,0,5,0,0,5,0,0,1,0,0,0,0,0,0,0,4,1,6 | 0,6,0,12,4,11,0,0,0,0,5,0,0,3,0,0,4,0,0,0,0,6,6,0,0,5,0,0,1,0,0,5,0,0,4,0,0,2,0,10,4,0,11,0,0,0,4,0,8,2 | 0,0,0,0,0,6,0,0,0,0,0,0,0,0,5,0,0,1,0,0,1,0,0,3,0,0,0,0,0,0,0,0,5,0,0,2,0,0,0,0,0,0,0,0,0,0,0,4,7,0 | 3,0,0,4,0,0,3,0,4,6,0,0,6,0,9,0,0,0,0,0,0,5,10,0,2,0,0,2,11,0,0,0,0,5,0,0,4,0,0,0,0,0,6,0,0,0,0,12,5,6 | 0,3,0,0,3,5,0,5,0,5,5,0,0,0,0,0,2,0,0,3,0,0,0,0,0,0,0,0,6,0,6,1,0,0,3,0,0,3,5,7,3,0,0,1,0,0,0,0,0,6 | 9,0,0,0,0,5,6,12,3,0,0,6,0,0,6,0,0,2,0,0,0,8,0,1,11,0,0,11,0,3,0,0,0,0,0,6,0,0,4,0,6,2,0,6,0,0,0,6,0,0 | 6,0,0,0,0,0,2,0,0,0,0,0,0,4,0,2,0,0,5,0,0,0,0,9,3,0,0,5,0,5,0,0,0,3,0,0,6,0,0,0,0,0,3,0,0,0,11,0,6,0 | 5,6,5,0,4,0,0,1,0,0,3,9,0,0,0,0,3,9,0,5,0,0,1,0,12,6,0,0,3,0,0,0,0,0,3,0,0,2,0,0,0,0,4,4,0,0,0,0,0,0 | 0,0,1,0,0,0,0,0,1,0,0,1,0,0,1,0,0,4,0,0,2,0,0,0,0,0,6,0,0,2,0,0,2,0,0,3,0,0,5,0,0,0,0,12,0,12,0,0,0,0 | 6,0,0,1,0,0,5,0,0,1,9,0,0,0,0,0,0,6,1,0,0,6,0,6,3,0,0,4,0,0,4,0,0,6,0,0,2,0,0,5,0,0,0,0,0,2,0,0,4,0 | 0,5,4,0,1,0,0,1,6,9,5,0,0,0,0,12,0,0,0,0,0,0,3,8,0,0,0,0,0,0,0,4,0,0,5,4,0,2,0,7,6,6,0,5,0,0,4,0,0,3 | 0,0,3,0,0,0,5,0,1,0,0,6,10,0,3,0,0,5,0,0,0,0,0,2,7,6,3,0,0,1,0,5,0,5,0,5,5,0,1,0,0,2,0,0,0,0,0,2,12,0 | 0,0,0,4,0,0,2,4,7,6,0,0,0,12,11,5,0,0,6,0,0,0,5,0,3,0,11,0,11,0,4,0,0,5,0,0,6,0,5,1,0,0,4,0,0,1,0,0,0,0 | 0,3,0,6,3,0,0,3,10,0,1,0,0,4,0,0,5,0,0,5,0,0,0,0,0,5,0,0,0,0,0,3,0,0,1,0,0,1,0,0,5,0,5,0,0,0,2,0,0,1 | 0,0,2,0,5,4,0,0,1,0,0,5,0,12,6,0,0,5,0,0,3,0,0,0,0,0,1,8,0,0,0,8,0,10,0,0,0,0,6,0,6,6,0,0,6,0,0,5,0,0 | 6,9,0,0,9,0,5,0,8,2,0,0,1,0,0,0,0,0,5,0,0,4,0,7,2,0,0,1,0,0,6,0,0,2,0,0,5,0,4,6,0,0,0,0,4,0,0,0,1,0 | 0,6,10,0,1,0,0,2,0,0,3,9,0,0,0,0,4,8,0,2,0,0,1,0,0,0,0,5,1,0,4,0,0,0,5,0,0,3,0,0,0,0,0,0,0,0,1,0,4,4 | 0,0,6,0,0,6,0,0,4,0,0,6,9,0,6,5,0,0,0,0,0,0,5,1,0,10,5,11,0,2,0,0,2,0,0,6,0,0,5,0,0,0,0,0,0,0,0,0,0,0 | 0,0,0,4,0,0,0,0,0,6,0,0,0,0,0,0,0,0,4,0,0,1,0,0,0,11,0,3,5,0,0,0,0,2,0,0,6,0,9,6,0,0,5,0,0,1,0,0,0,0 | 0,3,0,0,0,0,0,5,12,0,1,0,0,6,0,0,4,8,0,6,0,0,5,0,0,3,0,0,3,0,0,0,0,0,0,0,0,2,0,0,5,12,0,4,0,0,4,8,0,0 | 0,0,2,0,0,6,0,0,5,10,0,1,11,6,2,6,0,0,0,8,4,0,0,0,0,0,0,0,8,4,0,0,0,0,0,0,0,0,4,0,8,0,10,0,5,0,12,0,0,0 | 0,0,0,4,0,0,0,0,0,2,0,0,1,10,12,3,0,0,0,0,0,2,0,0,2,0,0,5,0,0,1,12,8,4,0,0,2,0,0,5,0,0,4,0,0,3,0,0,0,0 | 0,3,0,0,0,0,0,3,0,0,0,5,0,0,0,0,4,0,0,4,0,0,1,0,0,3,0,0,0,12,0,4,0,0,5,0,0,0,0,0,4,0,5,4,0,9,0,0,0,3 | 0,0,3,0,0,6,0,0,6,0,0,0,0,0,6,0,0,1,0,0,5,0,0,5,0,0,0,0,0,0,0,0,5,0,0,6,4,7,2,0,0,4,0,0,1,0,0,2,0,0 | 4,0,0,4,0,0,0,0,0,3,0,0,5,0,0,5,0,0,0,0,0,3,0,0,4,9,0,6,0,0,2,5,0,5,0,0,0,0,0,3,0,0,0,0,0,1,0,0,0,0 | 0,2,0,11,4,0,0,1,0,0,3,0,9,5,0,0,4,0,0,6,0,0,1,9,9,0,0,0,6,0,0,2,0,0,6,0,0,0,0,4,6,0,0,0,12,0,2,0,0,2 |];
